param CT :	
		1	2	3	4 :=
	1	6	4	2	6
	2	2	3	7	5
	3	3	2	4	8
	4	6	3	4	2
;
param DEM :=
	1	875
	2	1000
	3	625
	4	500
;
param CAP :=
	1	900
	2	1500
	3	6000
	4	6000
;
param CF :=
	3	1000
	4	900
;